sat
(:max-memory          18.48
 :memory              17.64
 :num-allocs          294972903
 :rlimit-count        371646
 :sls-constraints     2764
 :sls-ddfw-flips      1096105.00
 :sls-ddfw-reinits    15
 :sls-ddfw-restarts   816
 :sls-ddfw-shifts     842842.00
 :sls.euf-conflict    2764
 :solve-eqs-elim-vars 5
 :solve-eqs-steps     12
 :time                1.11
 :total-time          1.12)
